#data file for HW3_problem4
#Charles Nicholson, ISE/DSA 5113
set I := 1 2 3 4 5 6; 
set J := 1 2 3 4 5 6 7 8;
param p := 
      1 3100 
      2 4800
      3 2500 
      4 3750 
      5 2950 
      6 1400;
param s:
        1 2 3 4 5 6 7 8 :=
      1 1 . . 1 1 . . 1
      2 1 1 1 . . 1 1 .
      3 . . 1 1 . . 1 1
      4 . 1 1 1 1 . . 1
      5 1 1 . . 1 1 . .
      6 . . . 1 . 1 1 .; 
      

        